certificates/rado_a10_c206_N27.cnf
c Rad2 upper bound instance: x1 + 10*x2 - x3 = 206, interval [1,27]
p cnf 27 144
1 5 21 0
-1 -5 -21 0
1 15 22 0
-1 -15 -22 0
1 23 25 0
-1 -23 -25 0
2 6 21 0
-2 -6 -21 0
2 16 22 0
-2 -16 -22 0
2 23 26 0
-2 -23 -26 0
3 7 21 0
-3 -7 -21 0
3 17 22 0
-3 -17 -22 0
3 23 27 0
-3 -23 -27 0
4 8 21 0
-4 -8 -21 0
4 18 22 0
-4 -18 -22 0
5 9 21 0
-5 -9 -21 0
5 19 22 0
-5 -19 -22 0
6 10 21 0
-6 -10 -21 0
6 20 22 0
-6 -20 -22 0
1 7 20 0
-1 -7 -20 0
7 11 21 0
-7 -11 -21 0
7 21 22 0
-7 -21 -22 0
2 8 20 0
-2 -8 -20 0
8 12 21 0
-8 -12 -21 0
8 22 0
-8 -22 0
3 9 20 0
-3 -9 -20 0
9 13 21 0
-9 -13 -21 0
9 22 23 0
-9 -22 -23 0
4 10 20 0
-4 -10 -20 0
10 14 21 0
-10 -14 -21 0
10 22 24 0
-10 -22 -24 0
5 11 20 0
-5 -11 -20 0
11 15 21 0
-11 -15 -21 0
11 22 25 0
-11 -22 -25 0
6 12 20 0
-6 -12 -20 0
12 16 21 0
-12 -16 -21 0
12 22 26 0
-12 -22 -26 0
7 13 20 0
-7 -13 -20 0
13 17 21 0
-13 -17 -21 0
13 22 27 0
-13 -22 -27 0
8 14 20 0
-8 -14 -20 0
14 18 21 0
-14 -18 -21 0
9 15 20 0
-9 -15 -20 0
15 19 21 0
-15 -19 -21 0
10 16 20 0
-10 -16 -20 0
16 20 21 0
-16 -20 -21 0
1 17 19 0
-1 -17 -19 0
11 17 20 0
-11 -17 -20 0
17 21 0
-17 -21 0
2 18 19 0
-2 -18 -19 0
12 18 20 0
-12 -18 -20 0
18 21 22 0
-18 -21 -22 0
3 19 0
-3 -19 0
13 19 20 0
-13 -19 -20 0
19 21 23 0
-19 -21 -23 0
4 19 20 0
-4 -19 -20 0
14 20 0
-14 -20 0
20 21 24 0
-20 -21 -24 0
5 19 21 0
-5 -19 -21 0
15 20 21 0
-15 -20 -21 0
21 25 0
-21 -25 0
6 19 22 0
-6 -19 -22 0
16 20 22 0
-16 -20 -22 0
21 22 26 0
-21 -22 -26 0
7 19 23 0
-7 -19 -23 0
17 20 23 0
-17 -20 -23 0
21 23 27 0
-21 -23 -27 0
8 19 24 0
-8 -19 -24 0
18 20 24 0
-18 -20 -24 0
9 19 25 0
-9 -19 -25 0
19 20 25 0
-19 -20 -25 0
10 19 26 0
-10 -19 -26 0
20 26 0
-20 -26 0
1 18 27 0
-1 -18 -27 0
11 19 27 0
-11 -19 -27 0
20 21 27 0
-20 -21 -27 0
