certificates/rado_a10_c206_N27.drat
-23 -25 20 -27 0
-25 20 -27 0
d -23 -25 20 -27 0
20 -27 0
d -25 20 -27 0
-20 -27 0
d -20 -21 -27 0
-27 0
21 0
-17 0
-25 0
19 0
-3 0
-23 0
-15 0
-5 0
0
